proyfinal/src/viki/013/experimentInOfficeAgust.take6.output/6b3a72ad-c92a-4188-ad5a-d3e8c62c7530.als.dat
{'cnf.clauses': '118081',
 'cnf.totvars': '69608',
 'conflict literals': '69',
 'conflicts': '33',
 'decisions': '4424',
 'memused.mb': '15.76',
 'outcome': 'UNSAT',
 'propagations': '29948',
 'restarts': '1',
 'solver.msecs': 35,
 'task.msecs': 86}
