proyfinal/src/viki/013/experimentInOfficeAgust.take6.output/6b3a72ad-c92a-4188-ad5a-d3e8c62c7530.als.out
Reading from standard input... Use '--help' for help.
============================[ Problem Statistics ]=============================
|                                                                             |
|  Number of variables:         69608                                         |
|  Number of clauses:          118081                                         |
|  Parse time:                   0.03 s                                       |
|                                                                             |
============================[ Search Statistics ]==============================
| Conflicts |          ORIGINAL         |          LEARNT          | Progress |
|           |    Vars  Clauses Literals |    Limit  Clauses Lit/Cl |          |
===============================================================================
===============================================================================
restarts              : 1
conflicts             : 33             (928 /sec)
decisions             : 4424           (0.00 % random) (124455 /sec)
propagations          : 29948          (842490 /sec)
conflict literals     : 69             (1.43 % deleted)
Memory used           : 15.76 MB
CPU time              : 0.035547 s

UNSATISFIABLE
